32      4       
10      10      10      10      
0       0       0       0       0       2       2       3       
4       1       1       0       1       2       4       5       
4       0       7       1       4       1       4       
1       2       3       0       3       3       6       7       9       
7       3       0       5       4       2       6       9       
1       7       4       5       0       2       8       10      
6       5       0       3       4       2       8       10      
10      5       5       0       4       2       11      12      
10      5       1       4       0       1       10      
9       7       0       5       4       1       11      
4       7       5       0       3       2       13      14      
7       6       5       4       0       2       13      14      
4       5       2       4       0       2       15      17      
1       2       4       3       0       2       16      17      
7       4       4       4       0       2       16      18      
7       3       0       5       6       2       19      21      
2       3       0       4       5       2       18      21      
5       2       4       0       3       2       20      23      
10      1       4       0       4       2       20      23      
6       3       0       6       6       2       22      24      
7       3       4       0       3       2       22      23      
10      7       6       5       0       2       25      26      
9       5       0       5       3       2       25      26      
10      0       4       1       6       2       25      26      
3       7       3       6       0       3       27      29      30      
7       2       4       0       5       3       27      29      30      
1       5       3       0       2       1       28      
1       3       4       0       7       1       31      
10      1       5       0       6       1       31      
5       0       5       3       3       1       31      
5       0       5       3       2       1       32      
0       0       0       0       0       0       
